644286
186,171,150,90,170,142,109,88,228,4,21,217,153,129,33,224,146,12,187,103,82,158,180,121,77,106,219,66,190,99,202,105,175,54,56,18,92,53,100,216,24,141,128,41,222,43,31,178,199,159,163,127,147,207,39,157,74,67,49,118,32,71,140,83,135,162,1,72,63,36,7,210,183,20,117,16,189,185,60,137,15,30,220,176,17,47,225,111,19,125,227,134,48,13,194,97,120,165,110,8,138,3,208,23,69,226,177,51,98,42,113,160,122,152,191,114,29,84,193,195,119,86,70,126,73,209,218,206,136,181,188,124,173,131,148,61,182,80,25,123,85,167,79,95,57,76,174,200,198,10,201,14,65,154,164,214,46,197,143,11,139,58,59,221,213,93,168,172,204,52,132,149,115,2,230,45,212,104,38,203,6,223,44,64,5,156,211,145,144,26,22,89,192,37,34,179,196,107,116,96,91,68,9,166,101,184,161,205,75,215,78,130,81,40,27,169,102,62,55,28,50,151,87,35,108,94,229,133,112,155